set G := gen1 gen2;
set F := oil gas;
set K := 0 1 2;

param A := 
gen1 oil 0 1.4609
gen1 oil 1 1.5742
gen1 oil 2 0.8008
gen1 gas 0 1.5742
gen1 gas 1 0.16310
gen1 gas 2 0.000916
gen2 oil 0 0.8008
gen2 oil 1 0.20310
gen2 oil 2 0.000916
gen2 gas 0 0.7266
gen2 gas 1 0.2256
gen2 gas 2 0.000778;

param PMAX :=
gen1 30.0
gen2 25.0;

param PMIN :=
gen1 18.0
gen2 14.0;

param GASUP := 10.0;

param PREQ := 50.0;

